c File: flat50_3_0.col
c
c SOURCE: Joseph Culberson (joe@cs.ualberta.ca)
c DESCRIPTION: Quasi-random coloring problem
c              generated with flatness = 0
c                             probability = 0.139
c                             known coloring = 3
c                             random seed = 1430
c              Creation Date:  Tue Jun  9 12:09:10 1998
c Maximum degree = 7 Minimum degree = 1
c p edge 50 115
c cnf created by edge2cnf
p cnf 150 545
-1 -2 0
-1 -3 0
-2 -3 0
1 2 3 0
-4 -5 0
-4 -6 0
-5 -6 0
4 5 6 0
-7 -8 0
-7 -9 0
-8 -9 0
7 8 9 0
-10 -11 0
-10 -12 0
-11 -12 0
10 11 12 0
-13 -14 0
-13 -15 0
-14 -15 0
13 14 15 0
-16 -17 0
-16 -18 0
-17 -18 0
16 17 18 0
-19 -20 0
-19 -21 0
-20 -21 0
19 20 21 0
-22 -23 0
-22 -24 0
-23 -24 0
22 23 24 0
-25 -26 0
-25 -27 0
-26 -27 0
25 26 27 0
-28 -29 0
-28 -30 0
-29 -30 0
28 29 30 0
-31 -32 0
-31 -33 0
-32 -33 0
31 32 33 0
-34 -35 0
-34 -36 0
-35 -36 0
34 35 36 0
-37 -38 0
-37 -39 0
-38 -39 0
37 38 39 0
-40 -41 0
-40 -42 0
-41 -42 0
40 41 42 0
-43 -44 0
-43 -45 0
-44 -45 0
43 44 45 0
-46 -47 0
-46 -48 0
-47 -48 0
46 47 48 0
-49 -50 0
-49 -51 0
-50 -51 0
49 50 51 0
-52 -53 0
-52 -54 0
-53 -54 0
52 53 54 0
-55 -56 0
-55 -57 0
-56 -57 0
55 56 57 0
-58 -59 0
-58 -60 0
-59 -60 0
58 59 60 0
-61 -62 0
-61 -63 0
-62 -63 0
61 62 63 0
-64 -65 0
-64 -66 0
-65 -66 0
64 65 66 0
-67 -68 0
-67 -69 0
-68 -69 0
67 68 69 0
-70 -71 0
-70 -72 0
-71 -72 0
70 71 72 0
-73 -74 0
-73 -75 0
-74 -75 0
73 74 75 0
-76 -77 0
-76 -78 0
-77 -78 0
76 77 78 0
-79 -80 0
-79 -81 0
-80 -81 0
79 80 81 0
-82 -83 0
-82 -84 0
-83 -84 0
82 83 84 0
-85 -86 0
-85 -87 0
-86 -87 0
85 86 87 0
-88 -89 0
-88 -90 0
-89 -90 0
88 89 90 0
-91 -92 0
-91 -93 0
-92 -93 0
91 92 93 0
-94 -95 0
-94 -96 0
-95 -96 0
94 95 96 0
-97 -98 0
-97 -99 0
-98 -99 0
97 98 99 0
-100 -101 0
-100 -102 0
-101 -102 0
100 101 102 0
-103 -104 0
-103 -105 0
-104 -105 0
103 104 105 0
-106 -107 0
-106 -108 0
-107 -108 0
106 107 108 0
-109 -110 0
-109 -111 0
-110 -111 0
109 110 111 0
-112 -113 0
-112 -114 0
-113 -114 0
112 113 114 0
-115 -116 0
-115 -117 0
-116 -117 0
115 116 117 0
-118 -119 0
-118 -120 0
-119 -120 0
118 119 120 0
-121 -122 0
-121 -123 0
-122 -123 0
121 122 123 0
-124 -125 0
-124 -126 0
-125 -126 0
124 125 126 0
-127 -128 0
-127 -129 0
-128 -129 0
127 128 129 0
-130 -131 0
-130 -132 0
-131 -132 0
130 131 132 0
-133 -134 0
-133 -135 0
-134 -135 0
133 134 135 0
-136 -137 0
-136 -138 0
-137 -138 0
136 137 138 0
-139 -140 0
-139 -141 0
-140 -141 0
139 140 141 0
-142 -143 0
-142 -144 0
-143 -144 0
142 143 144 0
-145 -146 0
-145 -147 0
-146 -147 0
145 146 147 0
-148 -149 0
-148 -150 0
-149 -150 0
148 149 150 0
-52 -1 0
-53 -2 0
-54 -3 0
-94 -1 0
-95 -2 0
-96 -3 0
-103 -1 0
-104 -2 0
-105 -3 0
-106 -1 0
-107 -2 0
-108 -3 0
-109 -1 0
-110 -2 0
-111 -3 0
-112 -1 0
-113 -2 0
-114 -3 0
-76 -4 0
-77 -5 0
-78 -6 0
-142 -4 0
-143 -5 0
-144 -6 0
-145 -7 0
-146 -8 0
-147 -9 0
-115 -10 0
-116 -11 0
-117 -12 0
-139 -10 0
-140 -11 0
-141 -12 0
-58 -13 0
-59 -14 0
-60 -15 0
-82 -13 0
-83 -14 0
-84 -15 0
-94 -13 0
-95 -14 0
-96 -15 0
-103 -13 0
-104 -14 0
-105 -15 0
-109 -13 0
-110 -14 0
-111 -15 0
-136 -13 0
-137 -14 0
-138 -15 0
-61 -16 0
-62 -17 0
-63 -18 0
-82 -16 0
-83 -17 0
-84 -18 0
-85 -16 0
-86 -17 0
-87 -18 0
-91 -16 0
-92 -17 0
-93 -18 0
-136 -16 0
-137 -17 0
-138 -18 0
-55 -19 0
-56 -20 0
-57 -21 0
-64 -19 0
-65 -20 0
-66 -21 0
-88 -19 0
-89 -20 0
-90 -21 0
-100 -19 0
-101 -20 0
-102 -21 0
-109 -19 0
-110 -20 0
-111 -21 0
-127 -19 0
-128 -20 0
-129 -21 0
-136 -19 0
-137 -20 0
-138 -21 0
-52 -22 0
-53 -23 0
-54 -24 0
-55 -22 0
-56 -23 0
-57 -24 0
-97 -22 0
-98 -23 0
-99 -24 0
-127 -22 0
-128 -23 0
-129 -24 0
-82 -25 0
-83 -26 0
-84 -27 0
-103 -25 0
-104 -26 0
-105 -27 0
-106 -25 0
-107 -26 0
-108 -27 0
-124 -25 0
-125 -26 0
-126 -27 0
-145 -25 0
-146 -26 0
-147 -27 0
-88 -28 0
-89 -29 0
-90 -30 0
-94 -28 0
-95 -29 0
-96 -30 0
-124 -28 0
-125 -29 0
-126 -30 0
-55 -31 0
-56 -32 0
-57 -33 0
-58 -31 0
-59 -32 0
-60 -33 0
-70 -31 0
-71 -32 0
-72 -33 0
-73 -31 0
-74 -32 0
-75 -33 0
-112 -31 0
-113 -32 0
-114 -33 0
-118 -31 0
-119 -32 0
-120 -33 0
-139 -31 0
-140 -32 0
-141 -33 0
-73 -34 0
-74 -35 0
-75 -36 0
-82 -34 0
-83 -35 0
-84 -36 0
-88 -34 0
-89 -35 0
-90 -36 0
-97 -34 0
-98 -35 0
-99 -36 0
-124 -34 0
-125 -35 0
-126 -36 0
-64 -37 0
-65 -38 0
-66 -39 0
-94 -37 0
-95 -38 0
-96 -39 0
-100 -37 0
-101 -38 0
-102 -39 0
-127 -37 0
-128 -38 0
-129 -39 0
-139 -37 0
-140 -38 0
-141 -39 0
-145 -37 0
-146 -38 0
-147 -39 0
-85 -40 0
-86 -41 0
-87 -42 0
-88 -40 0
-89 -41 0
-90 -42 0
-97 -40 0
-98 -41 0
-99 -42 0
-142 -40 0
-143 -41 0
-144 -42 0
-76 -43 0
-77 -44 0
-78 -45 0
-91 -43 0
-92 -44 0
-93 -45 0
-118 -43 0
-119 -44 0
-120 -45 0
-67 -46 0
-68 -47 0
-69 -48 0
-91 -46 0
-92 -47 0
-93 -48 0
-100 -46 0
-101 -47 0
-102 -48 0
-106 -46 0
-107 -47 0
-108 -48 0
-121 -46 0
-122 -47 0
-123 -48 0
-127 -46 0
-128 -47 0
-129 -48 0
-130 -46 0
-131 -47 0
-132 -48 0
-79 -49 0
-80 -50 0
-81 -51 0
-115 -49 0
-116 -50 0
-117 -51 0
-124 -49 0
-125 -50 0
-126 -51 0
-136 -49 0
-137 -50 0
-138 -51 0
-103 -52 0
-104 -53 0
-105 -54 0
-112 -52 0
-113 -53 0
-114 -54 0
-133 -52 0
-134 -53 0
-135 -54 0
-106 -55 0
-107 -56 0
-108 -57 0
-109 -55 0
-110 -56 0
-111 -57 0
-121 -55 0
-122 -56 0
-123 -57 0
-127 -55 0
-128 -56 0
-129 -57 0
-103 -58 0
-104 -59 0
-105 -60 0
-109 -58 0
-110 -59 0
-111 -60 0
-118 -58 0
-119 -59 0
-120 -60 0
-136 -58 0
-137 -59 0
-138 -60 0
-139 -61 0
-140 -62 0
-141 -63 0
-145 -61 0
-146 -62 0
-147 -63 0
-118 -64 0
-119 -65 0
-120 -66 0
-142 -64 0
-143 -65 0
-144 -66 0
-103 -67 0
-104 -68 0
-105 -69 0
-106 -70 0
-107 -71 0
-108 -72 0
-130 -70 0
-131 -71 0
-132 -72 0
-142 -70 0
-143 -71 0
-144 -72 0
-121 -76 0
-122 -77 0
-123 -78 0
-124 -76 0
-125 -77 0
-126 -78 0
-121 -79 0
-122 -80 0
-123 -81 0
-136 -79 0
-137 -80 0
-138 -81 0
-148 -79 0
-149 -80 0
-150 -81 0
-148 -82 0
-149 -83 0
-150 -84 0
-112 -85 0
-113 -86 0
-114 -87 0
-118 -88 0
-119 -89 0
-120 -90 0
-124 -88 0
-125 -89 0
-126 -90 0
-148 -88 0
-149 -89 0
-150 -90 0
-112 -91 0
-113 -92 0
-114 -93 0
-115 -91 0
-116 -92 0
-117 -93 0
-142 -91 0
-143 -92 0
-144 -93 0
-106 -94 0
-107 -95 0
-108 -96 0
-103 -97 0
-104 -98 0
-105 -99 0
-112 -97 0
-113 -98 0
-114 -99 0
-118 -97 0
-119 -98 0
-120 -99 0
-106 -100 0
-107 -101 0
-108 -102 0
-109 -100 0
-110 -101 0
-111 -102 0
